unsat
(:SPACER-inductive-gen                9
 :SPACER-inductive-gen-weaken-fail    12
 :SPACER-inductive-level              4
 :SPACER-max-depth                    5
 :SPACER-max-query-lvl                5
 :SPACER-non-local-gen                1
 :SPACER-num-active-lemmas            8
 :SPACER-num-ctp-blocked              6
 :SPACER-num-invariants               6
 :SPACER-num-is_invariant             33
 :SPACER-num-lemmas                   15
 :SPACER-num-pobs                     6
 :SPACER-num-propagations             19
 :SPACER-num-queries                  10
 :added-eqs                           698
 :arith-assert-diseq                  246
 :arith-assert-lower                  902
 :arith-assert-upper                  922
 :arith-bound-prop                    48
 :arith-conflicts                     6
 :arith-eq-adapter                    86
 :arith-fixed-eqs                     154
 :arith-num-rows                      22
 :arith-offset-eqs                    72
 :arith-pivots                        84
 :arith-row-summations                88
 :arith-tableau-max-columns           60
 :arith-tableau-max-rows              22
 :conflicts                           172
 :decisions                           516
 :del-clause                          230
 :final-checks                        48
 :iuc_solver.num_proxies              24
 :max-memory                          30.94
 :memory                              30.44
 :minimized-lits                      8
 :mk-bool-var                         870
 :mk-clause                           662
 :num-allocs                          10226552
 :num-checks                          160
 :pool_solver.checks                  80
 :pool_solver.checks.sat              24
 :propagations                        4646
 :rlimit-count                        26150
 :time                                0.05
 :time.iuc_solver.get_iuc             0.00
 :time.iuc_solver.get_iuc.hyp_reduce1 0.00
 :time.iuc_solver.get_iuc.hyp_reduce2 0.00
 :time.iuc_solver.get_iuc.learn_core  0.00
 :time.pool_solver.proof              0.00
 :time.pool_solver.smt.total          0.01
 :time.pool_solver.smt.total.sat      0.00
 :time.spacer.init_rules              0.00
 :time.spacer.mbp                     0.00
 :time.spacer.solve                   0.04
 :time.spacer.solve.propagate         0.01
 :time.spacer.solve.reach             0.03
 :time.spacer.solve.reach.children    0.00
 :time.spacer.solve.reach.cluster     0.01
 :time.spacer.solve.reach.gen.global  0.00
 :time.spacer.solve.reach.gen.ind     0.00)
(:max-memory   30.94
 :memory       30.44
 :num-allocs   10226552
 :rlimit-count 26150
 :time         0.05
 :total-time   0.07)
